objective value:                    0.999999999552984
h-1,1                                            0.05 	(obj:0)
h-1,2                                            0.05 	(obj:0)
h-1,3                                            0.05 	(obj:0)
h-1,4                                            0.05 	(obj:0)
h-1,5                                            0.05 	(obj:0)
h-1,8                                            0.05 	(obj:0)
h-1,9                                            0.05 	(obj:0)
h-1,16                                           0.05 	(obj:0)
h-1,17                                           0.05 	(obj:0)
h-1,18                                           0.05 	(obj:0)
h-1,19                                           0.05 	(obj:0)
h-1,20                                           0.05 	(obj:0)
h-1,21                                           0.05 	(obj:0)
h-1,26                                           0.05 	(obj:0)
h-1,27                                           0.05 	(obj:0)
h-1,29                                           0.05 	(obj:0)
h-1,30                                           0.05 	(obj:0)
h-1,32                                           0.05 	(obj:0)
h-1,33                                           0.05 	(obj:0)
h-1,35                                           0.05 	(obj:0)
h-1,36                                           0.05 	(obj:0)
h-1,37                                           0.05 	(obj:0)
h-1,38                                           0.05 	(obj:0)
h-1,39                                           0.05 	(obj:0)
h-1,40                                           0.05 	(obj:0)
h-1,41                                           0.05 	(obj:0)
h-1,44                                           0.05 	(obj:0)
h-1,45                                           0.05 	(obj:0)
h-1,46                                           0.05 	(obj:0)
h-1,47                                           0.05 	(obj:0)
h-1,48                                           0.05 	(obj:0)
h-1,49                                           0.05 	(obj:0)
h-1,53                                           0.05 	(obj:0)
h-1,58                                           0.05 	(obj:0)
h-1,60                                           0.05 	(obj:0)
h-1,61                                           0.05 	(obj:0)
h-1,62                                           0.05 	(obj:0)
h-1,63                                           0.05 	(obj:0)
h-1,69                                           0.05 	(obj:0)
h-1,70                                           0.05 	(obj:0)
h-1,94                                           0.05 	(obj:0)
h-1,95                                           0.05 	(obj:0)
h-1,97                                           0.05 	(obj:0)
h-1,98                                           0.05 	(obj:0)
h-1,99                                           0.05 	(obj:0)
h-1,106                           0.00865777235977718 	(obj:0)
h-1,107                                          0.05 	(obj:0)
h-1,108                                          0.05 	(obj:0)
h-1,109                                          0.05 	(obj:0)
h-1,111                                          0.05 	(obj:0)
h-1,113                                          0.05 	(obj:0)
h-1,115                                          0.05 	(obj:0)
h-1,116                                          0.05 	(obj:0)
h-1,119                                          0.05 	(obj:0)
h-1,122                           0.00104001641433492 	(obj:0)
h-1,124                                          0.05 	(obj:0)
h-1,125                                          0.05 	(obj:0)
h-1,128                             0.199019613862038 	(obj:0)
h-1,129                             0.946078431606293 	(obj:0)
h-1,130                             0.477450984716415 	(obj:0)
h-1,132                                          0.05 	(obj:0)
h-1,140                                          0.05 	(obj:0)
h-1,141                                          0.05 	(obj:0)
h-1,143                                          0.05 	(obj:0)
h-1,146                                          0.05 	(obj:0)
h-1,147                                          0.05 	(obj:0)
h-1,148                                          0.05 	(obj:0)
h-1,149                                          0.05 	(obj:0)
h-1,150                                          0.05 	(obj:0)
h-1,153                                          0.05 	(obj:0)
h-1,155                                          0.05 	(obj:0)
h-1,156                             0.391176480054855 	(obj:0)
h-1,157                             0.938235294818878 	(obj:0)
h-1,158                             0.271568638086319 	(obj:0)
h-1,162                                          0.05 	(obj:0)
h-1,163                                          0.05 	(obj:0)
h-1,164                                          0.05 	(obj:0)
h-1,165                                          0.05 	(obj:0)
h-1,166                                          0.05 	(obj:0)
h-1,169                                          0.05 	(obj:0)
h-1,172                                          0.05 	(obj:0)
h-1,173                                          0.05 	(obj:0)
h-1,174                                          0.05 	(obj:0)
h-1,177                                          0.05 	(obj:0)
h-1,180                                          0.05 	(obj:0)
h-1,184                             0.579411792755127 	(obj:0)
h-1,185                             0.995098042488098 	(obj:0)
h-1,186                                          0.05 	(obj:0)
h-1,188                                          0.05 	(obj:0)
h-1,189                                          0.05 	(obj:0)
h-1,192                                          0.05 	(obj:0)
h-1,193                                          0.05 	(obj:0)
h-1,194                                          0.05 	(obj:0)
h-1,195                                          0.05 	(obj:0)
h-1,196                                          0.05 	(obj:0)
h-1,198                                          0.05 	(obj:0)
h-1,199                                          0.05 	(obj:0)
h-1,200                                          0.05 	(obj:0)
h-1,202                                          0.05 	(obj:0)
h-1,203                                          0.05 	(obj:0)
h-1,204                                          0.05 	(obj:0)
h-1,206                                          0.05 	(obj:0)
h-1,207                                          0.05 	(obj:0)
h-1,208                                          0.05 	(obj:0)
h-1,209                                          0.05 	(obj:0)
h-1,210                                          0.05 	(obj:0)
h-1,211                             0.226470592617989 	(obj:0)
h-1,212                                             1 	(obj:0)
h-1,213                             0.538235318660736 	(obj:0)
h-1,222                                          0.05 	(obj:0)
h-1,223                                          0.05 	(obj:0)
h-1,224                                          0.05 	(obj:0)
h-1,226                                          0.05 	(obj:0)
h-1,227                                          0.05 	(obj:0)
h-1,228                                          0.05 	(obj:0)
h-1,229                                          0.05 	(obj:0)
h-1,230                                          0.05 	(obj:0)
h-1,231                                          0.05 	(obj:0)
h-1,232                                          0.05 	(obj:0)
h-1,233                                          0.05 	(obj:0)
h-1,235                                          0.05 	(obj:0)
h-1,236                                          0.05 	(obj:0)
h-1,237                                          0.05 	(obj:0)
h-1,238                                          0.05 	(obj:0)
h-1,239                             0.379411774873734 	(obj:0)
h-1,240                                             1 	(obj:0)
h-1,241                              0.29705882370472 	(obj:0)
h-1,242                                          0.05 	(obj:0)
h-1,244                                          0.05 	(obj:0)
h-1,247                                          0.05 	(obj:0)
h-1,248                           0.00644495459707249 	(obj:0)
h-1,252                                          0.05 	(obj:0)
h-1,254                                          0.05 	(obj:0)
h-1,255                                          0.05 	(obj:0)
h-1,256                                          0.05 	(obj:0)
h-1,257                                          0.05 	(obj:0)
h-1,259                                          0.05 	(obj:0)
h-1,260                                          0.05 	(obj:0)
h-1,261                                          0.05 	(obj:0)
h-1,262                                          0.05 	(obj:0)
h-1,263                                          0.05 	(obj:0)
h-1,264                                          0.05 	(obj:0)
h-1,265                                          0.05 	(obj:0)
h-1,266                                          0.05 	(obj:0)
h-1,267                             0.742156875133514 	(obj:0)
h-1,268                             0.924509811401367 	(obj:0)
h-1,269                            0.0931372560560703 	(obj:0)
h-1,270                                          0.05 	(obj:0)
h-1,271                                          0.05 	(obj:0)
h-1,279                                          0.05 	(obj:0)
h-1,280                                          0.05 	(obj:0)
h-1,282                                          0.05 	(obj:0)
h-1,283                                          0.05 	(obj:0)
h-1,285                                          0.05 	(obj:0)
h-1,287                                          0.05 	(obj:0)
h-1,288                                          0.05 	(obj:0)
h-1,289                                          0.05 	(obj:0)
h-1,290                                          0.05 	(obj:0)
h-1,291                                          0.05 	(obj:0)
h-1,292                                          0.05 	(obj:0)
h-1,293                                          0.05 	(obj:0)
h-1,294                             0.175490203499794 	(obj:0)
h-1,295                                             1 	(obj:0)
h-1,296                             0.897058832645416 	(obj:0)
h-1,297                                          0.05 	(obj:0)
h-1,298                                          0.05 	(obj:0)
h-1,299                                          0.05 	(obj:0)
h-1,300                                          0.05 	(obj:0)
h-1,301                                          0.05 	(obj:0)
h-1,302                                          0.05 	(obj:0)
h-1,308                                          0.05 	(obj:0)
h-1,309                                          0.05 	(obj:0)
h-1,310                                          0.05 	(obj:0)
h-1,311                                          0.05 	(obj:0)
h-1,313                                          0.05 	(obj:0)
h-1,314                                          0.05 	(obj:0)
h-1,315                                          0.05 	(obj:0)
h-1,316                                          0.05 	(obj:0)
h-1,317                                          0.05 	(obj:0)
h-1,318                                          0.05 	(obj:0)
h-1,319                                          0.05 	(obj:0)
h-1,320                                          0.05 	(obj:0)
h-1,322                             0.322549027204514 	(obj:0)
h-1,323                                             1 	(obj:0)
h-1,324                             0.814705896377564 	(obj:0)
h-1,325                                          0.05 	(obj:0)
h-1,326                                          0.05 	(obj:0)
h-1,327                                          0.05 	(obj:0)
h-1,328                                          0.05 	(obj:0)
h-1,329                                          0.05 	(obj:0)
h-1,330                                          0.05 	(obj:0)
h-1,331                                          0.05 	(obj:0)
h-1,337                                          0.05 	(obj:0)
h-1,338                                          0.05 	(obj:0)
h-1,339                                          0.05 	(obj:0)
h-1,340                                          0.05 	(obj:0)
h-1,342                                          0.05 	(obj:0)
h-1,343                                          0.05 	(obj:0)
h-1,344                                          0.05 	(obj:0)
h-1,345                                          0.05 	(obj:0)
h-1,346                                          0.05 	(obj:0)
h-1,347                                          0.05 	(obj:0)
h-1,348                                          0.05 	(obj:0)
h-1,350                             0.499019634723663 	(obj:0)
h-1,351                             0.946078431606293 	(obj:0)
h-1,352                             0.351960796117783 	(obj:0)
h-1,353                                          0.05 	(obj:0)
h-1,356                                          0.05 	(obj:0)
h-1,357                                          0.05 	(obj:0)
h-1,358                                          0.05 	(obj:0)
h-1,359                                          0.05 	(obj:0)
h-1,363                                          0.05 	(obj:0)
h-1,364                                          0.05 	(obj:0)
h-1,365                                          0.05 	(obj:0)
h-1,366                                          0.05 	(obj:0)
h-1,368                                          0.05 	(obj:0)
h-1,369                                          0.05 	(obj:0)
h-1,370                                          0.05 	(obj:0)
h-1,371                                          0.05 	(obj:0)
h-1,372                                          0.05 	(obj:0)
h-1,373                                          0.05 	(obj:0)
h-1,374                                          0.05 	(obj:0)
h-1,375                                          0.05 	(obj:0)
h-1,377                             0.173529413342476 	(obj:0)
h-1,378                             0.879411768913269 	(obj:0)
h-1,379                             0.753921580314636 	(obj:0)
h-1,380                            0.0813725508749485 	(obj:0)
h-1,381                                          0.05 	(obj:0)
h-1,383                                          0.05 	(obj:0)
h-1,385                                          0.05 	(obj:0)
h-1,386                                          0.05 	(obj:0)
h-1,387                                          0.05 	(obj:0)
h-1,388                                          0.05 	(obj:0)
h-1,393                                          0.05 	(obj:0)
h-1,394                                          0.05 	(obj:0)
h-1,396                                          0.05 	(obj:0)
h-1,397                                          0.05 	(obj:0)
h-1,398                                          0.05 	(obj:0)
h-1,399                                          0.05 	(obj:0)
h-1,400                                          0.05 	(obj:0)
h-1,401                                          0.05 	(obj:0)
h-1,402                                          0.05 	(obj:0)
h-1,405                             0.436274510622025 	(obj:0)
h-1,406                                          0.95 	(obj:0)
h-1,407                             0.597058844566345 	(obj:0)
h-1,408                                          0.05 	(obj:0)
h-1,411                                          0.05 	(obj:0)
h-1,412                                          0.05 	(obj:0)
h-1,413                                          0.05 	(obj:0)
h-1,414                                          0.05 	(obj:0)
h-1,415                                          0.05 	(obj:0)
h-1,416                                          0.05 	(obj:0)
h-1,419                                          0.05 	(obj:0)
h-1,420                                          0.05 	(obj:0)
h-1,422                                          0.05 	(obj:0)
h-1,424                                          0.05 	(obj:0)
h-1,425                                          0.05 	(obj:0)
h-1,426                                          0.05 	(obj:0)
h-1,427                                          0.05 	(obj:0)
h-1,428                                          0.05 	(obj:0)
h-1,429                                          0.05 	(obj:0)
h-1,430                                          0.05 	(obj:0)
h-1,433                             0.620588254928589 	(obj:0)
h-1,434                             0.946078431606293 	(obj:0)
h-1,435                             0.367647069692612 	(obj:0)
h-1,436                                          0.05 	(obj:0)
h-1,437                                          0.05 	(obj:0)
h-1,438                                          0.05 	(obj:0)
h-1,439                                          0.05 	(obj:0)
h-1,440                                          0.05 	(obj:0)
h-1,441                                          0.05 	(obj:0)
h-1,442                                          0.05 	(obj:0)
h-1,443                                          0.05 	(obj:0)
h-1,444                                          0.05 	(obj:0)
h-1,447                                          0.05 	(obj:0)
h-1,448                                          0.05 	(obj:0)
h-1,452                                          0.05 	(obj:0)
h-1,453                                          0.05 	(obj:0)
h-1,454                                          0.05 	(obj:0)
h-1,455                                          0.05 	(obj:0)
h-1,456                                          0.05 	(obj:0)
h-1,457                                          0.05 	(obj:0)
h-1,458                                          0.05 	(obj:0)
h-1,460                            0.0441176488995552 	(obj:0)
h-1,461                             0.859803926944733 	(obj:0)
h-1,462                             0.793137264251709 	(obj:0)
h-1,463                                          0.05 	(obj:0)
h-1,464                                          0.05 	(obj:0)
h-1,465                                          0.05 	(obj:0)
h-1,466                                          0.05 	(obj:0)
h-1,467                                          0.05 	(obj:0)
h-1,468                                          0.05 	(obj:0)
h-1,469                                          0.05 	(obj:0)
h-1,470                                          0.05 	(obj:0)
h-1,471                                          0.05 	(obj:0)
h-1,475                                          0.05 	(obj:0)
h-1,476                                          0.05 	(obj:0)
h-1,478                                          0.05 	(obj:0)
h-1,482                                          0.05 	(obj:0)
h-1,483                                          0.05 	(obj:0)
h-1,484                                          0.05 	(obj:0)
h-1,485                                          0.05 	(obj:0)
h-1,488                             0.420588237047195 	(obj:0)
h-1,489                             0.946078431606293 	(obj:0)
h-1,490                             0.573529434204102 	(obj:0)
h-1,491                                          0.05 	(obj:0)
h-1,492                                          0.05 	(obj:0)
h-1,493                                          0.05 	(obj:0)
h-1,494                                          0.05 	(obj:0)
h-1,495                                          0.05 	(obj:0)
h-1,496                                          0.05 	(obj:0)
h-1,497                                          0.05 	(obj:0)
h-1,503                                          0.05 	(obj:0)
h-1,504                                          0.05 	(obj:0)
h-1,505                                          0.05 	(obj:0)
h-1,506                                          0.05 	(obj:0)
h-1,511                                          0.05 	(obj:0)
h-1,512                                          0.05 	(obj:0)
h-1,516                             0.542156887054443 	(obj:0)
h-1,517                             0.946078431606293 	(obj:0)
h-1,518                             0.506862771511078 	(obj:0)
h-1,519                                          0.05 	(obj:0)
h-1,522                                          0.05 	(obj:0)
h-1,523                                          0.05 	(obj:0)
h-1,525                                          0.05 	(obj:0)
h-1,531                                          0.05 	(obj:0)
h-1,532                                          0.05 	(obj:0)
h-1,533                                          0.05 	(obj:0)
h-1,534                                          0.05 	(obj:0)
h-1,537                                          0.05 	(obj:0)
h-1,538                                          0.05 	(obj:0)
h-1,544                             0.844117653369904 	(obj:0)
h-1,545                             0.946078431606293 	(obj:0)
h-1,546                             0.208823543787003 	(obj:0)
h-1,553                                          0.05 	(obj:0)
h-1,559                                          0.05 	(obj:0)
h-1,560                                          0.05 	(obj:0)
h-1,562                                          0.05 	(obj:0)
h-1,570                                          0.05 	(obj:0)
h-1,571                             0.289215686917305 	(obj:0)
h-1,572                             0.934313726425171 	(obj:0)
h-1,573                                             1 	(obj:0)
h-1,574                             0.208823543787003 	(obj:0)
h-1,587                                          0.05 	(obj:0)
h-1,589                                          0.05 	(obj:0)
h-1,596                                          0.05 	(obj:0)
h-1,597                                          0.05 	(obj:0)
h-1,599                             0.602941203117371 	(obj:0)
h-1,600                                             1 	(obj:0)
h-1,601                             0.753921580314636 	(obj:0)
h-1,602                            0.0617647061124444 	(obj:0)
h-1,612                                          0.05 	(obj:0)
h-1,613                                          0.05 	(obj:0)
h-1,620                                          0.05 	(obj:0)
h-1,624                                          0.05 	(obj:0)
h-1,625                                          0.05 	(obj:0)
h-1,627                             0.793137264251709 	(obj:0)
h-1,628                             0.946078431606293 	(obj:0)
h-1,629                             0.424509805440903 	(obj:0)
h-1,631                                          0.05 	(obj:0)
h-1,639                                          0.05 	(obj:0)
h-1,640                                          0.05 	(obj:0)
h-1,651                                          0.05 	(obj:0)
h-1,654                            0.0696078438311815 	(obj:0)
h-1,655                             0.726470601558685 	(obj:0)
h-1,656                             0.640196096897125 	(obj:0)
h-1,668                                          0.05 	(obj:0)
h-1,671                                          0.05 	(obj:0)
h-1,672                                          0.05 	(obj:0)
h-1,676                                          0.05 	(obj:0)
h-1,677                                          0.05 	(obj:0)
h-1,678                                          0.05 	(obj:0)
h-1,682                                          0.05 	(obj:0)
h-1,689                                          0.05 	(obj:0)
h-1,690                                          0.05 	(obj:0)
h-1,691                                          0.05 	(obj:0)
h-1,692                                          0.05 	(obj:0)
h-1,693                                          0.05 	(obj:0)
h-1,698                                          0.05 	(obj:0)
h-1,701                                          0.05 	(obj:0)
h-1,703                                          0.05 	(obj:0)
h-1,704                                          0.05 	(obj:0)
h-1,705                                          0.05 	(obj:0)
h-1,707                                          0.05 	(obj:0)
h-1,708                                          0.05 	(obj:0)
h-1,709                                          0.05 	(obj:0)
h-1,711                                          0.05 	(obj:0)
h-1,712                                          0.05 	(obj:0)
h-1,715                                          0.05 	(obj:0)
h-1,716                                          0.05 	(obj:0)
h-1,718                                          0.05 	(obj:0)
h-1,719                                          0.05 	(obj:0)
h-1,720                                          0.05 	(obj:0)
h-1,721                                          0.05 	(obj:0)
h-1,722                                          0.05 	(obj:0)
h-1,723                                          0.05 	(obj:0)
h-1,724                                          0.05 	(obj:0)
h-1,725                                          0.05 	(obj:0)
h-1,726                                          0.05 	(obj:0)
h-1,728                                          0.05 	(obj:0)
h-1,732                                          0.05 	(obj:0)
h-1,733                                          0.05 	(obj:0)
h-1,734                                          0.05 	(obj:0)
h-1,735                                          0.05 	(obj:0)
h-1,736                                          0.05 	(obj:0)
h-1,737                                          0.05 	(obj:0)
h-1,738                                          0.05 	(obj:0)
h-1,739                                          0.05 	(obj:0)
h-1,740                                          0.05 	(obj:0)
h-1,741                                          0.05 	(obj:0)
h-1,742                                          0.05 	(obj:0)
h-1,743                                          0.05 	(obj:0)
h-1,744                                          0.05 	(obj:0)
h-1,746                                          0.05 	(obj:0)
h-1,747                                          0.05 	(obj:0)
h-1,748                                          0.05 	(obj:0)
h-1,749                                          0.05 	(obj:0)
h-1,750                                          0.05 	(obj:0)
h-1,751                                          0.05 	(obj:0)
h-1,753                                          0.05 	(obj:0)
h-1,754                                          0.05 	(obj:0)
h-1,755                                          0.05 	(obj:0)
h-1,758                                          0.05 	(obj:0)
h-1,760                                          0.05 	(obj:0)
h-1,761                                          0.05 	(obj:0)
h-1,762                                          0.05 	(obj:0)
h-1,763                                          0.05 	(obj:0)
h-1,764                                          0.05 	(obj:0)
h-1,765                                          0.05 	(obj:0)
h-1,766                                          0.05 	(obj:0)
h-1,767                                          0.05 	(obj:0)
h-1,769                                          0.05 	(obj:0)
h-1,770                            0.0491404316369242 	(obj:0)
h-1,771                                          0.05 	(obj:0)
h-1,772                                          0.05 	(obj:0)
h-1,773                                          0.05 	(obj:0)
h-1,774                                          0.05 	(obj:0)
h-1,775                                          0.05 	(obj:0)
h-1,776                                          0.05 	(obj:0)
h-1,777                                          0.05 	(obj:0)
h-1,778                                          0.05 	(obj:0)
h-1,779                                          0.05 	(obj:0)
h-1,780                                          0.05 	(obj:0)
h-1,782                                          0.05 	(obj:0)
h-1,783                                          0.05 	(obj:0)
z0,0                              -0.0492173302962792 	(obj:0)
a0,0                                0.487689636349379 	(obj:0)
z0,1                                -5.59913859406284 	(obj:0)
a0,1                              0.00368740316479109 	(obj:0)
z0,2                                -13.0023898476505 	(obj:0)
a0,2                             3.98438866297471e-09 	(obj:0)
z0,3                                 1.57144591634279 	(obj:0)
a0,3                                0.827981396097424 	(obj:0)
z0,4                                -24.3649977245898 	(obj:0)
z1,0                                 5.51824528934663 	(obj:0)
a1,0                                0.995996053209959 	(obj:0)
z1,1                                 9.73846815213883 	(obj:0)
a1,1                                0.999939324173256 	(obj:0)
z1,2                                -1.09588402463418 	(obj:0)
a1,2                                0.250507220516454 	(obj:0)
z1,3                                 3.81095637818335 	(obj:0)
a1,3                                0.978342289406704 	(obj:0)
z1,4                                -3.50418260475581 	(obj:0)
a1,4                               0.0291887719565034 	(obj:0)
z2,0                                -24.2988616864336 	(obj:0)
z2,1                                -17.0421411035978 	(obj:0)
a2,1                             1.44701660385824e-09 	(obj:-1)
z2,2                                -11.2863259177344 	(obj:0)
a2,2                             1.21896926690789e-05 	(obj:0)
z2,3                               -0.731975215086261 	(obj:0)
a2,3                                0.324761456595385 	(obj:0)
z2,4                                -15.3029962394103 	(obj:0)
z2,5                                -18.9129266110033 	(obj:0)
a2,5                             5.93114483127587e-09 	(obj:0)
z2,6                                -35.3108505362516 	(obj:0)
z2,7                                 12.1554978440484 	(obj:0)
a2,7                                      1.000000001 	(obj:1)
z2,8                                -41.4603868434728 	(obj:0)
z2,9                                -9.19388663323255 	(obj:0)
a2,9                             0.000100053331382232 	(obj:0)
